9709.0
1 1 1 1 1 1 1 1 0 1 
3 6 3 0 2 9 5 5 3 7 7 4 6 2 9 9 9 2 5 3 6 0 0 4 0 6 7 4 4 7 7 7 3 3 3 5 1 9 6 6 0 1 1 1 5 5 5 5 5 3 3 5 6 0 0 0 9 6 9 2 9 7 7 7 3 3 0 4 7 7 3 0 6 0 0 4 4 3 3 4 3 5 2 2 2 2 1 7 2 7 9 1 2 1 2 1 9 9 1 2 